40 40
20
3 3 37 29
4 3 29 37
3 5 37 24
3 6 37 18
7 3 33 37
3 8 37 0
3 9 34 28
3 10 37 8
3 12 34 16
3 16 34 0
3 40 0 0
4 4 25 36
4 14 25 0
4 22 25 14
3 5 37 32
5 4 29 25
5 8 29 29
5 12 29 0
5 13 29 12
22 40 3 0
